QPLIB_2958
LGQ
minimize
112 # number of variables
211 # number of constraints
0.0 # default value for linear coefficients in objective
20 # number of non-default linear coefficients in objective
1 5.0
2 5.0
3 1.0
4 1.0
5 3.0
6 3.0
7 1.0
8 1.0
9 2.0
10 2.0
11 1.0
12 1.0
13 4.0
14 4.0
15 4.0
16 4.0
17 2.0
18 2.0
19 1.0
20 1.0
0.0 # objective constant
14 # number of quadratic terms in all constraints
198 1 1 -2.0
199 1 1 -2.0
200 1 1 -2.0
201 1 1 -2.0
202 1 1 -2.0
203 1 1 -2.0
204 1 1 -2.0
205 1 1 -2.0
206 1 1 -2.0
207 1 1 -2.0
208 1 1 -2.0
209 1 1 -2.0
210 1 1 -2.0
211 1 1 -2.0
814 # number of linear terms in all constraints
1 21 1.0
1 22 -1.0
2 21 1.0
2 23 0.5
3 21 -1.0
3 23 0.5
4 24 0.5
4 25 1.0
5 24 0.5
5 25 -1.0
6 22 1.0
6 26 0.5
7 22 -1.0
7 26 0.5
8 27 0.5
8 28 1.0
9 27 0.5
9 28 -1.0
10 29 0.5
10 30 1.0
11 29 0.5
11 30 -1.0
12 31 0.5
12 32 1.0
13 31 0.5
13 32 -1.0
14 33 0.5
14 34 1.0
15 33 0.5
15 34 -1.0
16 35 0.5
16 36 1.0
17 35 0.5
17 36 -1.0
18 37 0.5
18 38 1.0
19 37 0.5
19 38 -1.0
20 39 0.5
20 40 1.0
21 39 0.5
21 40 -1.0
22 41 0.5
22 42 1.0
23 41 0.5
23 42 -1.0
24 43 0.5
24 44 1.0
25 43 0.5
25 44 -1.0
26 45 0.5
26 46 1.0
27 45 0.5
27 46 -1.0
28 47 0.5
28 48 1.0
29 47 0.5
29 48 -1.0
30 21 1.0
30 22 -1.0
30 49 -1.0
31 21 -1.0
31 22 1.0
31 49 -1.0
32 25 1.0
32 28 -1.0
32 50 -1.0
33 25 -1.0
33 28 1.0
33 50 -1.0
34 21 -1.0
34 22 1.0
34 23 0.5
34 26 0.5
34 51 -8.54
34 52 -8.54
35 21 1.0
35 22 -1.0
35 23 0.5
35 26 0.5
35 51 -8.54
35 52 8.54
36 24 0.5
36 25 -1.0
36 27 0.5
36 28 1.0
36 51 13.0
36 52 -13.0
37 24 0.5
37 25 1.0
37 27 0.5
37 28 -1.0
37 51 13.0
37 52 13.0
38 21 1.0
38 30 -1.0
38 53 -1.0
39 21 -1.0
39 30 1.0
39 53 -1.0
40 25 1.0
40 32 -1.0
40 54 -1.0
41 25 -1.0
41 32 1.0
41 54 -1.0
42 21 -1.0
42 23 0.5
42 29 0.5
42 30 1.0
42 55 -8.54
42 56 -8.54
43 21 1.0
43 23 0.5
43 29 0.5
43 30 -1.0
43 55 -8.54
43 56 8.54
44 24 0.5
44 25 -1.0
44 31 0.5
44 32 1.0
44 55 13.0
44 56 -13.0
45 24 0.5
45 25 1.0
45 31 0.5
45 32 -1.0
45 55 13.0
45 56 13.0
46 1 -1.0
46 21 1.0
46 34 -1.0
47 1 -1.0
47 21 -1.0
47 34 1.0
48 2 -1.0
48 25 1.0
48 36 -1.0
49 2 -1.0
49 25 -1.0
49 36 1.0
50 21 -1.0
50 23 0.5
50 33 0.5
50 34 1.0
50 57 -8.54
50 58 -8.54
51 21 1.0
51 23 0.5
51 33 0.5
51 34 -1.0
51 57 -8.54
51 58 8.54
52 24 0.5
52 25 -1.0
52 35 0.5
52 36 1.0
52 57 13.0
52 58 -13.0
53 24 0.5
53 25 1.0
53 35 0.5
53 36 -1.0
53 57 13.0
53 58 13.0
54 21 1.0
54 38 -1.0
54 59 -1.0
55 21 -1.0
55 38 1.0
55 59 -1.0
56 25 1.0
56 40 -1.0
56 60 -1.0
57 25 -1.0
57 40 1.0
57 60 -1.0
58 21 -1.0
58 23 0.5
58 37 0.5
58 38 1.0
58 61 -8.54
58 62 -8.54
59 21 1.0
59 23 0.5
59 37 0.5
59 38 -1.0
59 61 -8.54
59 62 8.54
60 24 0.5
60 25 -1.0
60 39 0.5
60 40 1.0
60 61 13.0
60 62 -13.0
61 24 0.5
61 25 1.0
61 39 0.5
61 40 -1.0
61 61 13.0
61 62 13.0
62 21 1.0
62 42 -1.0
62 63 -1.0
63 21 -1.0
63 42 1.0
63 63 -1.0
64 25 1.0
64 44 -1.0
64 64 -1.0
65 25 -1.0
65 44 1.0
65 64 -1.0
66 21 -1.0
66 23 0.5
66 41 0.5
66 42 1.0
66 65 -8.54
66 66 -8.54
67 21 1.0
67 23 0.5
67 41 0.5
67 42 -1.0
67 65 -8.54
67 66 8.54
68 24 0.5
68 25 -1.0
68 43 0.5
68 44 1.0
68 65 13.0
68 66 -13.0
69 24 0.5
69 25 1.0
69 43 0.5
69 44 -1.0
69 65 13.0
69 66 13.0
70 3 -1.0
70 21 1.0
70 46 -1.0
71 3 -1.0
71 21 -1.0
71 46 1.0
72 4 -1.0
72 25 1.0
72 48 -1.0
73 4 -1.0
73 25 -1.0
73 48 1.0
74 21 -1.0
74 23 0.5
74 45 0.5
74 46 1.0
74 67 -8.54
74 68 -8.54
75 21 1.0
75 23 0.5
75 45 0.5
75 46 -1.0
75 67 -8.54
75 68 8.54
76 24 0.5
76 25 -1.0
76 47 0.5
76 48 1.0
76 67 13.0
76 68 -13.0
77 24 0.5
77 25 1.0
77 47 0.5
77 48 -1.0
77 67 13.0
77 68 13.0
78 22 1.0
78 30 -1.0
78 69 -1.0
79 22 -1.0
79 30 1.0
79 69 -1.0
80 28 1.0
80 32 -1.0
80 70 -1.0
81 28 -1.0
81 32 1.0
81 70 -1.0
82 22 -1.0
82 26 0.5
82 29 0.5
82 30 1.0
82 71 -8.54
82 72 -8.54
83 22 1.0
83 26 0.5
83 29 0.5
83 30 -1.0
83 71 -8.54
83 72 8.54
84 27 0.5
84 28 -1.0
84 31 0.5
84 32 1.0
84 71 13.0
84 72 -13.0
85 27 0.5
85 28 1.0
85 31 0.5
85 32 -1.0
85 71 13.0
85 72 13.0
86 5 -1.0
86 22 1.0
86 34 -1.0
87 5 -1.0
87 22 -1.0
87 34 1.0
88 6 -1.0
88 28 1.0
88 36 -1.0
89 6 -1.0
89 28 -1.0
89 36 1.0
90 22 -1.0
90 26 0.5
90 33 0.5
90 34 1.0
90 73 -8.54
90 74 -8.54
91 22 1.0
91 26 0.5
91 33 0.5
91 34 -1.0
91 73 -8.54
91 74 8.54
92 27 0.5
92 28 -1.0
92 35 0.5
92 36 1.0
92 73 13.0
92 74 -13.0
93 27 0.5
93 28 1.0
93 35 0.5
93 36 -1.0
93 73 13.0
93 74 13.0
94 22 1.0
94 38 -1.0
94 75 -1.0
95 22 -1.0
95 38 1.0
95 75 -1.0
96 28 1.0
96 40 -1.0
96 76 -1.0
97 28 -1.0
97 40 1.0
97 76 -1.0
98 22 -1.0
98 26 0.5
98 37 0.5
98 38 1.0
98 77 -8.54
98 78 -8.54
99 22 1.0
99 26 0.5
99 37 0.5
99 38 -1.0
99 77 -8.54
99 78 8.54
100 27 0.5
100 28 -1.0
100 39 0.5
100 40 1.0
100 77 13.0
100 78 -13.0
101 27 0.5
101 28 1.0
101 39 0.5
101 40 -1.0
101 77 13.0
101 78 13.0
102 22 1.0
102 42 -1.0
102 79 -1.0
103 22 -1.0
103 42 1.0
103 79 -1.0
104 28 1.0
104 44 -1.0
104 80 -1.0
105 28 -1.0
105 44 1.0
105 80 -1.0
106 22 -1.0
106 26 0.5
106 41 0.5
106 42 1.0
106 81 -8.54
106 82 -8.54
107 22 1.0
107 26 0.5
107 41 0.5
107 42 -1.0
107 81 -8.54
107 82 8.54
108 27 0.5
108 28 -1.0
108 43 0.5
108 44 1.0
108 81 13.0
108 82 -13.0
109 27 0.5
109 28 1.0
109 43 0.5
109 44 -1.0
109 81 13.0
109 82 13.0
110 7 -1.0
110 22 1.0
110 46 -1.0
111 7 -1.0
111 22 -1.0
111 46 1.0
112 8 -1.0
112 28 1.0
112 48 -1.0
113 8 -1.0
113 28 -1.0
113 48 1.0
114 22 -1.0
114 26 0.5
114 45 0.5
114 46 1.0
114 83 -8.54
114 84 -8.54
115 22 1.0
115 26 0.5
115 45 0.5
115 46 -1.0
115 83 -8.54
115 84 8.54
116 27 0.5
116 28 -1.0
116 47 0.5
116 48 1.0
116 83 13.0
116 84 -13.0
117 27 0.5
117 28 1.0
117 47 0.5
117 48 -1.0
117 83 13.0
117 84 13.0
118 9 -1.0
118 30 1.0
118 34 -1.0
119 9 -1.0
119 30 -1.0
119 34 1.0
120 10 -1.0
120 32 1.0
120 36 -1.0
121 10 -1.0
121 32 -1.0
121 36 1.0
122 29 0.5
122 30 -1.0
122 33 0.5
122 34 1.0
122 85 -8.54
122 86 -8.54
123 29 0.5
123 30 1.0
123 33 0.5
123 34 -1.0
123 85 -8.54
123 86 8.54
124 31 0.5
124 32 -1.0
124 35 0.5
124 36 1.0
124 85 13.0
124 86 -13.0
125 31 0.5
125 32 1.0
125 35 0.5
125 36 -1.0
125 85 13.0
125 86 13.0
126 30 1.0
126 38 -1.0
126 87 -1.0
127 30 -1.0
127 38 1.0
127 87 -1.0
128 32 1.0
128 40 -1.0
128 88 -1.0
129 32 -1.0
129 40 1.0
129 88 -1.0
130 29 0.5
130 30 -1.0
130 37 0.5
130 38 1.0
130 89 -8.54
130 90 -8.54
131 29 0.5
131 30 1.0
131 37 0.5
131 38 -1.0
131 89 -8.54
131 90 8.54
132 31 0.5
132 32 -1.0
132 39 0.5
132 40 1.0
132 89 13.0
132 90 -13.0
133 31 0.5
133 32 1.0
133 39 0.5
133 40 -1.0
133 89 13.0
133 90 13.0
134 30 1.0
134 42 -1.0
134 91 -1.0
135 30 -1.0
135 42 1.0
135 91 -1.0
136 32 1.0
136 44 -1.0
136 92 -1.0
137 32 -1.0
137 44 1.0
137 92 -1.0
138 29 0.5
138 30 -1.0
138 41 0.5
138 42 1.0
138 93 -8.54
138 94 -8.54
139 29 0.5
139 30 1.0
139 41 0.5
139 42 -1.0
139 93 -8.54
139 94 8.54
140 31 0.5
140 32 -1.0
140 43 0.5
140 44 1.0
140 93 13.0
140 94 -13.0
141 31 0.5
141 32 1.0
141 43 0.5
141 44 -1.0
141 93 13.0
141 94 13.0
142 11 -1.0
142 30 1.0
142 46 -1.0
143 11 -1.0
143 30 -1.0
143 46 1.0
144 12 -1.0
144 32 1.0
144 48 -1.0
145 12 -1.0
145 32 -1.0
145 48 1.0
146 29 0.5
146 30 -1.0
146 45 0.5
146 46 1.0
146 95 -8.54
146 96 -8.54
147 29 0.5
147 30 1.0
147 45 0.5
147 46 -1.0
147 95 -8.54
147 96 8.54
148 31 0.5
148 32 -1.0
148 47 0.5
148 48 1.0
148 95 13.0
148 96 -13.0
149 31 0.5
149 32 1.0
149 47 0.5
149 48 -1.0
149 95 13.0
149 96 13.0
150 13 -1.0
150 34 1.0
150 38 -1.0
151 13 -1.0
151 34 -1.0
151 38 1.0
152 14 -1.0
152 36 1.0
152 40 -1.0
153 14 -1.0
153 36 -1.0
153 40 1.0
154 33 0.5
154 34 -1.0
154 37 0.5
154 38 1.0
154 97 -8.54
154 98 -8.54
155 33 0.5
155 34 1.0
155 37 0.5
155 38 -1.0
155 97 -8.54
155 98 8.54
156 35 0.5
156 36 -1.0
156 39 0.5
156 40 1.0
156 97 13.0
156 98 -13.0
157 35 0.5
157 36 1.0
157 39 0.5
157 40 -1.0
157 97 13.0
157 98 13.0
158 15 -1.0
158 34 1.0
158 42 -1.0
159 15 -1.0
159 34 -1.0
159 42 1.0
160 16 -1.0
160 36 1.0
160 44 -1.0
161 16 -1.0
161 36 -1.0
161 44 1.0
162 33 0.5
162 34 -1.0
162 41 0.5
162 42 1.0
162 99 -8.54
162 100 -8.54
163 33 0.5
163 34 1.0
163 41 0.5
163 42 -1.0
163 99 -8.54
163 100 8.54
164 35 0.5
164 36 -1.0
164 43 0.5
164 44 1.0
164 99 13.0
164 100 -13.0
165 35 0.5
165 36 1.0
165 43 0.5
165 44 -1.0
165 99 13.0
165 100 13.0
166 34 1.0
166 46 -1.0
166 101 -1.0
167 34 -1.0
167 46 1.0
167 101 -1.0
168 36 1.0
168 48 -1.0
168 102 -1.0
169 36 -1.0
169 48 1.0
169 102 -1.0
170 33 0.5
170 34 -1.0
170 45 0.5
170 46 1.0
170 103 -8.54
170 104 -8.54
171 33 0.5
171 34 1.0
171 45 0.5
171 46 -1.0
171 103 -8.54
171 104 8.54
172 35 0.5
172 36 -1.0
172 47 0.5
172 48 1.0
172 103 13.0
172 104 -13.0
173 35 0.5
173 36 1.0
173 47 0.5
173 48 -1.0
173 103 13.0
173 104 13.0
174 38 1.0
174 42 -1.0
174 105 -1.0
175 38 -1.0
175 42 1.0
175 105 -1.0
176 40 1.0
176 44 -1.0
176 106 -1.0
177 40 -1.0
177 44 1.0
177 106 -1.0
178 37 0.5
178 38 -1.0
178 41 0.5
178 42 1.0
178 107 -8.54
178 108 -8.54
179 37 0.5
179 38 1.0
179 41 0.5
179 42 -1.0
179 107 -8.54
179 108 8.54
180 39 0.5
180 40 -1.0
180 43 0.5
180 44 1.0
180 107 13.0
180 108 -13.0
181 39 0.5
181 40 1.0
181 43 0.5
181 44 -1.0
181 107 13.0
181 108 13.0
182 17 -1.0
182 38 1.0
182 46 -1.0
183 17 -1.0
183 38 -1.0
183 46 1.0
184 18 -1.0
184 40 1.0
184 48 -1.0
185 18 -1.0
185 40 -1.0
185 48 1.0
186 37 0.5
186 38 -1.0
186 45 0.5
186 46 1.0
186 109 -8.54
186 110 -8.54
187 37 0.5
187 38 1.0
187 45 0.5
187 46 -1.0
187 109 -8.54
187 110 8.54
188 39 0.5
188 40 -1.0
188 47 0.5
188 48 1.0
188 109 13.0
188 110 -13.0
189 39 0.5
189 40 1.0
189 47 0.5
189 48 -1.0
189 109 13.0
189 110 13.0
190 19 -1.0
190 42 1.0
190 46 -1.0
191 19 -1.0
191 42 -1.0
191 46 1.0
192 20 -1.0
192 44 1.0
192 48 -1.0
193 20 -1.0
193 44 -1.0
193 48 1.0
194 41 0.5
194 42 -1.0
194 45 0.5
194 46 1.0
194 111 -8.54
194 112 -8.54
195 41 0.5
195 42 1.0
195 45 0.5
195 46 -1.0
195 111 -8.54
195 112 8.54
196 43 0.5
196 44 -1.0
196 47 0.5
196 48 1.0
196 111 13.0
196 112 -13.0
197 43 0.5
197 44 1.0
197 47 0.5
197 48 -1.0
197 111 13.0
197 112 13.0
1.79769313486232E+308 # value for infinity
-1.79769313486232E+308 # default left-hand-side value
0 # number of non-default left-hand-sides
-9.0 # default right-hand-side value
205 # number of non-default right-hand-sides
1 0.0
2 8.54
3 0.0
4 13.0
5 0.0
6 8.54
7 0.0
8 13.0
9 0.0
10 8.54
11 0.0
12 13.0
13 0.0
14 8.54
15 0.0
16 13.0
17 0.0
18 8.54
19 0.0
20 13.0
21 0.0
22 8.54
23 0.0
24 13.0
25 0.0
26 8.54
27 0.0
28 13.0
29 0.0
30 0.0
31 0.0
32 0.0
33 0.0
34 0.0
35 8.54
36 13.0
37 26.0
38 0.0
39 0.0
40 0.0
41 0.0
42 0.0
43 8.54
44 13.0
45 26.0
46 0.0
47 0.0
48 0.0
49 0.0
50 0.0
51 8.54
52 13.0
53 26.0
54 0.0
55 0.0
56 0.0
57 0.0
58 0.0
59 8.54
60 13.0
61 26.0
62 0.0
63 0.0
64 0.0
65 0.0
66 0.0
67 8.54
68 13.0
69 26.0
70 0.0
71 0.0
72 0.0
73 0.0
74 0.0
75 8.54
76 13.0
77 26.0
78 0.0
79 0.0
80 0.0
81 0.0
82 0.0
83 8.54
84 13.0
85 26.0
86 0.0
87 0.0
88 0.0
89 0.0
90 0.0
91 8.54
92 13.0
93 26.0
94 0.0
95 0.0
96 0.0
97 0.0
98 0.0
99 8.54
100 13.0
101 26.0
102 0.0
103 0.0
104 0.0
105 0.0
106 0.0
107 8.54
108 13.0
109 26.0
110 0.0
111 0.0
112 0.0
113 0.0
114 0.0
115 8.54
116 13.0
117 26.0
118 0.0
119 0.0
120 0.0
121 0.0
122 0.0
123 8.54
124 13.0
125 26.0
126 0.0
127 0.0
128 0.0
129 0.0
130 0.0
131 8.54
132 13.0
133 26.0
134 0.0
135 0.0
136 0.0
137 0.0
138 0.0
139 8.54
140 13.0
141 26.0
142 0.0
143 0.0
144 0.0
145 0.0
146 0.0
147 8.54
148 13.0
149 26.0
150 0.0
151 0.0
152 0.0
153 0.0
154 0.0
155 8.54
156 13.0
157 26.0
158 0.0
159 0.0
160 0.0
161 0.0
162 0.0
163 8.54
164 13.0
165 26.0
166 0.0
167 0.0
168 0.0
169 0.0
170 0.0
171 8.54
172 13.0
173 26.0
174 0.0
175 0.0
176 0.0
177 0.0
178 0.0
179 8.54
180 13.0
181 26.0
182 0.0
183 0.0
184 0.0
185 0.0
186 0.0
187 8.54
188 13.0
189 26.0
190 0.0
191 0.0
192 0.0
193 0.0
194 0.0
195 8.54
196 13.0
197 26.0
198 -16.0
199 -16.0
200 -16.0
201 -16.0
202 -16.0
203 -16.0
204 -36.0
205 -36.0
-1.79769313486232E+308 # default variable lower bound value
56 # number of non-default variable lower bounds
23 2.0
24 2.0
26 2.0
27 2.0
29 2.0
31 2.0
33 3.0
35 4.2155
37 1.5
39 1.5
41 1.5
43 1.5
45 1.5
47 1.5
51 0.0
52 0.0
55 0.0
56 0.0
57 0.0
58 0.0
61 0.0
62 0.0
65 0.0
66 0.0
67 0.0
68 0.0
71 0.0
72 0.0
73 0.0
74 0.0
77 0.0
78 0.0
81 0.0
82 0.0
83 0.0
84 0.0
85 0.0
86 0.0
89 0.0
90 0.0
93 0.0
94 0.0
95 0.0
96 0.0
97 0.0
98 0.0
99 0.0
100 0.0
103 0.0
104 0.0
107 0.0
108 0.0
109 0.0
110 0.0
111 0.0
112 0.0
1.79769313486232E+308 # default variable upper bound value
56 # number of non-default variable upper bounds
23 8.0
24 8.0
26 8.0
27 8.0
29 8.0
31 8.0
33 8.5399
35 12.0
37 6.0
39 6.0
41 6.0
43 6.0
45 6.0
47 6.0
51 1.0
52 1.0
55 1.0
56 1.0
57 1.0
58 1.0
61 1.0
62 1.0
65 1.0
66 1.0
67 1.0
68 1.0
71 1.0
72 1.0
73 1.0
74 1.0
77 1.0
78 1.0
81 1.0
82 1.0
83 1.0
84 1.0
85 1.0
86 1.0
89 1.0
90 1.0
93 1.0
94 1.0
95 1.0
96 1.0
97 1.0
98 1.0
99 1.0
100 1.0
103 1.0
104 1.0
107 1.0
108 1.0
109 1.0
110 1.0
111 1.0
112 1.0
0 # default variable type
42 # number of non-default variable types
51 1
52 1
55 1
56 1
57 1
58 1
61 1
62 1
65 1
66 1
67 1
68 1
71 1
72 1
73 1
74 1
77 1
78 1
81 1
82 1
83 1
84 1
85 1
86 1
89 1
90 1
93 1
94 1
95 1
96 1
97 1
98 1
99 1
100 1
103 1
104 1
107 1
108 1
109 1
110 1
111 1
112 1
0.0 # default variable primal value in starting point
14 # number of non-default variable primal values in starting point
23 2.0
24 2.0
26 2.0
27 2.0
29 2.0
31 2.0
33 3.0
35 4.2155
37 1.5
39 1.5
41 1.5
43 1.5
45 1.5
47 1.5
0.0 # default constraint dual value in starting point
0 # number of non-default constraint dual values in starting point
0.0 # default variable bound dual value in starting point
0 # number of non-default variable bound dual values in starting point
0 # number of non-default variable names
0 # number of non-default constraint names
